set N := 1 2 3 4 5 6; 
set BR  :=
             (1,2) 
			 (2,3) (2,5) (2,6) 
			 (3,4) (3,5) 
			 (4,5) 
			 (5,6) 
			 (6,1)
			 ;      
			 
set BRindex  :=
				            1
							2 
							3
							4
							5
							6
							7
							8
							9
						     ;      
			   
param NODO0 := 1;
param t             := 6;  

   #	    cost	and limits of flow
param: 	c 	 Fstraight 	Freverse :=	    
1	2	        1	 0	  				4
2	3	        1   0					2
2	5	        1   0					3
2	6	        1   0					1
3	4	        1   0					2
3	5	        1   0					2
4	5	        1   0					2
5	6	        1   0					2
6	1	        1   0					1
;
param:  INYmin INYmax :=
      1    	0	10
      2    	0	10
      3    	0	10
      4    	0	10
      5    	0	10
      6    	0	10
      ;
      
